\Problem name: 

Minimize
OBJROW: y_0 + y_1 + y_2 + y_3 + y_4 + y_5
Subject To
constr(0):  x_a_0 + x_a_1 + x_a_2 + x_a_3 + x_a_4 + x_a_5 = 1
constr(1):  x_b_0 + x_b_1 + x_b_2 + x_b_3 + x_b_4 + x_b_5 = 1
constr(2):  x_c_0 + x_c_1 + x_c_2 + x_c_3 + x_c_4 + x_c_5 = 1
constr(3):  x_d_0 + x_d_1 + x_d_2 + x_d_3 + x_d_4 + x_d_5 = 1
constr(4):  x_e_0 + x_e_1 + x_e_2 + x_e_3 + x_e_4 + x_e_5 = 1
constr(5):  x_f_0 + x_f_1 + x_f_2 + x_f_3 + x_f_4 + x_f_5 = 1
constr(6):  - y_0 + x_a_0 + x_b_0 <= -0
constr(7):  - y_1 + x_a_1 + x_b_1 <= -0
constr(8):  - y_2 + x_a_2 + x_b_2 <= -0
constr(9):  - y_3 + x_a_3 + x_b_3 <= -0
constr(10):  - y_4 + x_a_4 + x_b_4 <= -0
constr(11):  - y_5 + x_a_5 + x_b_5 <= -0
constr(12):  - y_0 + x_a_0 + x_e_0 <= -0
constr(13):  - y_1 + x_a_1 + x_e_1 <= -0
constr(14):  - y_2 + x_a_2 + x_e_2 <= -0
constr(15):  - y_3 + x_a_3 + x_e_3 <= -0
constr(16):  - y_4 + x_a_4 + x_e_4 <= -0
constr(17):  - y_5 + x_a_5 + x_e_5 <= -0
constr(18):  - y_0 + x_a_0 + x_c_0 <= -0
constr(19):  - y_1 + x_a_1 + x_c_1 <= -0
constr(20):  - y_2 + x_a_2 + x_c_2 <= -0
constr(21):  - y_3 + x_a_3 + x_c_3 <= -0
constr(22):  - y_4 + x_a_4 + x_c_4 <= -0
constr(23):  - y_5 + x_a_5 + x_c_5 <= -0
constr(24):  - y_0 + x_a_0 + x_f_0 <= -0
constr(25):  - y_1 + x_a_1 + x_f_1 <= -0
constr(26):  - y_2 + x_a_2 + x_f_2 <= -0
constr(27):  - y_3 + x_a_3 + x_f_3 <= -0
constr(28):  - y_4 + x_a_4 + x_f_4 <= -0
constr(29):  - y_5 + x_a_5 + x_f_5 <= -0
constr(30):  - y_0 + x_b_0 + x_d_0 + x_f_0 <= -0
constr(31):  - y_1 + x_b_1 + x_d_1 + x_f_1 <= -0
constr(32):  - y_2 + x_b_2 + x_d_2 + x_f_2 <= -0
constr(33):  - y_3 + x_b_3 + x_d_3 + x_f_3 <= -0
constr(34):  - y_4 + x_b_4 + x_d_4 + x_f_4 <= -0
constr(35):  - y_5 + x_b_5 + x_d_5 + x_f_5 <= -0
constr(36):  - y_0 + x_c_0 + x_d_0 + x_e_0 <= -0
constr(37):  - y_1 + x_c_1 + x_d_1 + x_e_1 <= -0
constr(38):  - y_2 + x_c_2 + x_d_2 + x_e_2 <= -0
constr(39):  - y_3 + x_c_3 + x_d_3 + x_e_3 <= -0
constr(40):  - y_4 + x_c_4 + x_d_4 + x_e_4 <= -0
constr(41):  - y_5 + x_c_5 + x_d_5 + x_e_5 <= -0
Bounds
 0 <= y_0 <= 1
 0 <= y_1 <= 1
 0 <= y_2 <= 1
 0 <= y_3 <= 1
 0 <= y_4 <= 1
 0 <= y_5 <= 1
 0 <= x_a_0 <= 1
 0 <= x_a_1 <= 1
 0 <= x_a_2 <= 1
 0 <= x_a_3 <= 1
 0 <= x_a_4 <= 1
 0 <= x_a_5 <= 1
 0 <= x_b_0 <= 1
 0 <= x_b_1 <= 1
 0 <= x_b_2 <= 1
 0 <= x_b_3 <= 1
 0 <= x_b_4 <= 1
 0 <= x_b_5 <= 1
 0 <= x_c_0 <= 1
 0 <= x_c_1 <= 1
 0 <= x_c_2 <= 1
 0 <= x_c_3 <= 1
 0 <= x_c_4 <= 1
 0 <= x_c_5 <= 1
 0 <= x_d_0 <= 1
 0 <= x_d_1 <= 1
 0 <= x_d_2 <= 1
 0 <= x_d_3 <= 1
 0 <= x_d_4 <= 1
 0 <= x_d_5 <= 1
 0 <= x_e_0 <= 1
 0 <= x_e_1 <= 1
 0 <= x_e_2 <= 1
 0 <= x_e_3 <= 1
 0 <= x_e_4 <= 1
 0 <= x_e_5 <= 1
 0 <= x_f_0 <= 1
 0 <= x_f_1 <= 1
 0 <= x_f_2 <= 1
 0 <= x_f_3 <= 1
 0 <= x_f_4 <= 1
 0 <= x_f_5 <= 1
Integers
y_0 y_1 y_2 y_3 y_4 y_5 x_a_0 x_a_1 x_a_2 x_a_3 
x_a_4 x_a_5 x_b_0 x_b_1 x_b_2 x_b_3 x_b_4 x_b_5 x_c_0 x_c_1 
x_c_2 x_c_3 x_c_4 x_c_5 x_d_0 x_d_1 x_d_2 x_d_3 x_d_4 x_d_5 
x_e_0 x_e_1 x_e_2 x_e_3 x_e_4 x_e_5 x_f_0 x_f_1 x_f_2 x_f_3 
x_f_4 x_f_5 
End
